(set-info :smt-lib-version 2.6)
(set-logic QF_SLIA)
(set-info :source |
Generated by: Joel Day, Thorsten Ehlers, Mitja Kulczynski, Federico Mora, Florin Manea, Dirk Nowotka, Danny Poulsen, Zhengyang Lu
Application: Test WOORPJE
Target solver: WOORPJE
Publications: Day, J. D., Ehlers, T., Kulczynski, M., Manea, F., Nowotka, D., & Poulsen, D. B. (2019). On solving word equations using SAT. In RP 2019
Description: Enriches a system of 30 word equations by suitable linear constraints
|)
(set-info :license "https://creativecommons.org/licenses/by/4.0/")
(set-info :category "random")
(set-info :status unknown)

(declare-fun I () String)
(declare-fun C () String)
(declare-fun F () String)
(assert (= (str.++  "c" F "afcbfcbccccfcdebca")  (str.++  "c" C "a") ))
(assert (= (str.++  "daefbddefaf" I "aeecbafaecfeabffffacecdae")  (str.++  "daefbddefafefbeaeecbafaecfeabffffacecdae" "") ))
(assert (= (str.++  "da" I "dfbecebeacfafaccccfeedebeccbffefad")  (str.++  "daefbedfbecebeacfafaccccfeedebeccbffefad" "") ))
(assert (<=(* (str.len F) 13) 3705))
(assert (<=(* (str.len C) 15) 2040))
(assert (<=(* (str.len I) 3) 57))
(check-sat)

(exit)
